Data path: /scratch/opt/lxu/CFLG/benchmarks/Kgroup_A
Instance: K100.2.red
Result path: /scratch/opt/lxu/CFLG/results/Kgroup_A
Solver: Gurobi
Time limit: 3600
Formulation: LEFPV
Cover: Small
julia --project=. src/main.jl /scratch/opt/lxu/CFLG/benchmarks/Kgroup_A K100.2.red /scratch/opt/lxu/CFLG/results/Kgroup_A Gurobi 3600 LEFPV Small
The latest version of Julia in the `release` channel is 1.11.5+0.x64.linux.gnu. You currently have `1.11.4+0.x64.linux.gnu` installed. Run:

  juliaup update

in your terminal shell to install Julia 1.11.5+0.x64.linux.gnu and update the `release` channel to that version.
/scratch/opt/lxu/CFLG/benchmarks/Kgroup_A Gurobi 3600.0 /scratch/opt/lxu/CFLG/results/Kgroup_A K100.2.red LEFPV Small
/scratch/opt/lxu/CFLG/benchmarks/Kgroup_A/K100.2.red

 read graph
data loaded


after absorb:24 24

max_piece:16
problem_graph/original graph: node: 33/24 edge: 92/83 dlt: 0.07048185855182397 break_avg_len: 0.254347576513104 break_max_len: 1.0elapsed CPU time: 0.046386 seconds
Set parameter TokenServer to value "solice01.zib.de"
Set parameter Threads to value 1
Set parameter OutputFlag to value 1
Set parameter MIPGap to value 0.0001
Set parameter MIPGapAbs to value 1
Set parameter TimeLimit to value 3599.953614

 more cuts:false
formulation:LEFPV70 22 9
Set parameter PreCrush to value 1

 model loaded

Gurobi Optimizer version 12.0.1 build v12.0.1rc0 (linux64 - "Debian GNU/Linux 12 (bookworm)")

CPU model: Intel(R) Xeon(R) Gold 5222 CPU @ 3.80GHz, instruction set [SSE2|AVX|AVX2|AVX512]
Thread count: 8 physical cores, 16 logical processors, using up to 1 threads

Non-default parameters:
TimeLimit  3599.953614
MIPGapAbs  1
PreCrush  1
Threads  1

Optimize a model with 2723 rows, 1459 columns and 7333 nonzeros
Model fingerprint: 0xb47df424
Variable types: 309 continuous, 1150 integer (1150 binary)
Coefficient statistics:
  Matrix range     [6e-03, 1e+00]
  Objective range  [1e+00, 1e+00]
  Bounds range     [6e-03, 1e+00]
  RHS range        [6e-04, 2e+00]
Presolve removed 1048 rows and 297 columns
Presolve time: 0.05s
Presolved: 1675 rows, 1162 columns, 9443 nonzeros
Variable types: 264 continuous, 898 integer (898 binary)
Found heuristic solution: objective 172.0000000
Found heuristic solution: objective 168.0000000

Root relaxation: objective 1.270000e+02, 377 iterations, 0.00 seconds (0.00 work units)

    Nodes    |    Current Node    |     Objective Bounds      |     Work
 Expl Unexpl |  Obj  Depth IntInf | Incumbent    BestBd   Gap | It/Node Time

     0     0  127.00000    0   45  168.00000  127.00000  24.4%     -    0s
H    0     0                     159.0000000  127.00000  20.1%     -    0s
H    0     0                     148.0000000  127.00000  14.2%     -    0s
H    0     0                     147.0000000  127.00000  13.6%     -    0s
     0     0  127.06615    0   74  147.00000  127.06615  13.6%     -    0s
H    0     0                     143.0000000  127.18917  11.1%     -    0s
     0     0  127.18917    0   76  143.00000  127.18917  11.1%     -    0s
     0     0  128.04340    0   89  143.00000  128.04340  10.5%     -    0s
H    0     0                     142.0000000  128.05801  9.82%     -    0s
     0     0  128.05801    0   82  142.00000  128.05801  9.82%     -    0s
     0     0  128.05801    0   82  142.00000  128.05801  9.82%     -    0s
     0     0  129.07348    0  103  142.00000  129.07348  9.10%     -    0s
     0     0  129.21686    0  100  142.00000  129.21686  9.00%     -    0s
     0     0  129.21686    0   97  142.00000  129.21686  9.00%     -    0s
     0     0  130.36454    0   88  142.00000  130.36454  8.19%     -    0s
     0     0  130.54418    0   84  142.00000  130.54418  8.07%     -    0s
     0     0  130.61883    0  104  142.00000  130.61883  8.01%     -    0s
     0     0  130.64878    0  102  142.00000  130.64878  7.99%     -    0s
     0     0  130.64878    0  100  142.00000  130.64878  7.99%     -    0s
     0     0  130.91678    0  112  142.00000  130.91678  7.81%     -    0s
     0     0  130.91678    0  106  142.00000  130.91678  7.81%     -    0s
     0     0  130.98135    0  100  142.00000  130.98135  7.76%     -    0s
H    0     0                     141.0000000  131.01298  7.08%     -    0s
     0     0  131.01298    0   99  141.00000  131.01298  7.08%     -    0s
     0     0  131.01298    0   97  141.00000  131.01298  7.08%     -    0s
     0     0  131.07202    0   98  141.00000  131.07202  7.04%     -    0s
     0     0  131.07202    0  101  141.00000  131.07202  7.04%     -    0s
     0     0  131.16667    0   76  141.00000  131.16667  6.97%     -    0s
     0     0  131.29167    0   79  141.00000  131.29167  6.89%     -    0s
     0     0  131.29167    0   92  141.00000  131.29167  6.89%     -    0s
H    0     0                     140.0000000  131.30556  6.21%     -    0s
     0     0  131.30556    0   97  140.00000  131.30556  6.21%     -    0s
     0     0  131.30556    0   86  140.00000  131.30556  6.21%     -    0s
     0     0  131.30556    0   74  140.00000  131.30556  6.21%     -    0s
H    0     0                     138.0000000  131.30556  4.85%     -    0s
     0     2  131.32455    0   68  138.00000  131.32455  4.84%     -    0s
H 1153   721                     137.0000000  132.81897  3.05%  28.0    4s
  1549   845  135.02902   41   45  137.00000  133.00000  2.92%  27.9    5s
  4497  2337  135.27818   32   69  137.00000  133.33333  2.68%  27.9   10s
  6985  3638  135.56412   36   28  137.00000  133.50000  2.55%  28.0   15s
 10203  5231  136.00000   28   74  137.00000  133.66343  2.44%  27.9   23s
 10224  5245  135.21452   33  130  137.00000  133.66343  2.44%  27.8   25s
 10278  5281  135.00000   42  125  137.00000  133.66343  2.44%  27.7   30s
 10325  5312  135.34320   41  144  137.00000  133.66343  2.44%  27.6   35s
 10400  5362  135.58349   24  131  137.00000  133.66343  2.44%  27.4   40s
 10910  5510  135.38859   47   46  137.00000  134.09127  2.12%  33.8   45s
 12861  5830  134.83333   42   29  137.00000  134.37209  1.92%  35.2   50s
 14958  6076  135.07861   47   63  137.00000  134.50009  1.82%  36.1   55s
 17272  6241  135.29050   40   72  137.00000  134.60134  1.75%  37.1   60s
 19443  6359  135.27178   38   69  137.00000  134.69609  1.68%  38.0   65s
 21864  6340  135.60000   47   68  137.00000  134.80685  1.60%  38.5   70s
 24328  6304  134.97016   38  101  137.00000  134.88324  1.55%  38.7   75s
 26788  6194  135.76501   45   34  137.00000  134.96764  1.48%  39.0   80s
 29125  6724  135.23426   39   64  137.00000  135.00000  1.46%  39.4   85s
 31465  7387  135.67798   42   87  137.00000  135.00000  1.46%  39.8   90s
 33818  7976  135.18820   41   55  137.00000  135.02199  1.44%  40.1   95s
 36284  8479     cutoff   46       137.00000  135.05556  1.42%  40.3  100s
 38660  8861  135.84126   42   59  137.00000  135.10000  1.39%  40.5  105s
 40925  9240  135.50000   46   57  137.00000  135.14735  1.35%  40.6  110s
 43335  9576  135.41146   42   65  137.00000  135.18414  1.33%  40.7  115s
 45785  9880     cutoff   40       137.00000  135.22952  1.29%  40.8  120s
 48130 10149     cutoff   60       137.00000  135.26316  1.27%  40.9  125s
 50305 10449  135.76215   56   61  137.00000  135.28571  1.25%  40.9  130s
 52638 10569     cutoff   55       137.00000  135.32678  1.22%  40.9  135s
 54993 10764  135.37669   44   74  137.00000  135.34102  1.21%  41.1  140s
 57247 10851  135.64286   47   54  137.00000  135.37500  1.19%  41.2  145s
 59686 10908  135.68572   45   70  137.00000  135.41186  1.16%  41.2  150s
 61948 10894     cutoff   47       137.00000  135.45251  1.13%  41.2  155s
 64286 10760  135.55239   42   63  137.00000  135.50000  1.09%  41.4  160s
 66502 10891  136.00000   49   28  137.00000  135.50000  1.09%  41.5  165s
 68877 11122  135.59139   44   62  137.00000  135.50000  1.09%  41.6  170s
 71295 11283  135.53901   43   64  137.00000  135.50847  1.09%  41.5  175s
 73831 11236  135.99439   46   40  137.00000  135.53175  1.07%  41.4  180s
 76300 11134  135.63114   45   67  137.00000  135.55778  1.05%  41.3  185s
 78667 10856  135.74784   49   64  137.00000  135.59843  1.02%  41.2  190s
 80987 10385  135.80697   39   79  137.00000  135.64511  0.99%  41.2  195s
 83235 10148  135.66667   40   62  137.00000  135.66667  0.97%  41.3  200s
 85223 10211  135.89564   37   64  137.00000  135.66667  0.97%  41.4  205s
 87413 10139  135.74485   49   69  137.00000  135.67099  0.97%  41.5  210s
 89887  9441  136.00000   42   35  137.00000  135.71891  0.94%  41.4  215s
 92377  8455  136.00000   42   42  137.00000  135.78571  0.89%  41.3  220s
 95199  6861     cutoff   45       137.00000  135.97882  0.75%  41.0  225s

Cutting planes:
  Gomory: 19
  Cover: 342
  Implied bound: 56
  Clique: 1
  MIR: 167
  Mixing: 16
  StrongCG: 8
  Flow cover: 674
  GUB cover: 69
  Inf proof: 1
  Zero half: 44
  RLT: 49
  Relax-and-lift: 65
  BQP: 5

Explored 95630 nodes (3929155 simplex iterations) in 225.86 seconds (202.04 work units)
Thread count was 1 (of 16 available processors)

Solution count 10: 137 137 138 ... 159

Optimal solution found (tolerance 1.00e-04)
Best objective 1.370000000000e+02, best bound 1.360000000000e+02, gap 0.7299%

User-callback calls 287935, time in user-callback 0.87 sec

 sepatime0
137.0Stat(MathOptInterface.OPTIMAL, 137.0, 136.00000000000003, 0.007299270072992493, 0.0, 0.046386, 225.86067414283752, 95630, Main.CFLG.LEFPV, "", #undef)
